problems/csplib-prob010/SocialGolfersProblem-models/noch/O2/lingeling/model_3-ord02-5-3-2-solution000001.solution
language Essence 1.3

letting Golfers be new type enum {Golfers_1, Golfers_2, Golfers_3, Golfers_4, Golfers_5, Golfers_6}
letting sched be {partition({Golfers_4})}
